c Generated by SAT Solver
p cnf 2002 74
101 102 0
201 202 0
301 302 0
401 402 0
501 502 0
601 602 0
701 702 0
801 802 0
901 902 0
1001 1002 0
1101 1102 0
1201 1202 0
1301 1302 0
1401 1402 0
1501 1502 0
1601 1602 0
1701 1702 0
1801 1802 0
1901 1902 0
2001 2002 0
-101 -102 0
-201 -202 0
-301 -302 0
-401 -402 0
-501 -502 0
-601 -602 0
-701 -702 0
-801 -802 0
-901 -902 0
-1001 -1002 0
-1101 -1102 0
-1201 -1202 0
-1301 -1302 0
-1401 -1402 0
-1501 -1502 0
-1601 -1602 0
-1701 -1702 0
-1801 -1802 0
-1901 -1902 0
-2001 -2002 0
-101 -1001 0
-102 -1002 0
-101 -1901 0
-102 -1902 0
-201 -1801 0
-202 -1802 0
-201 -1901 0
-202 -1902 0
-301 -801 0
-302 -802 0
-301 -1201 0
-302 -1202 0
-301 -1601 0
-302 -1602 0
-301 -1701 0
-302 -1702 0
-401 -801 0
-402 -802 0
-501 -1701 0
-502 -1702 0
-601 -901 0
-602 -902 0
-801 -1001 0
-802 -1002 0
-901 -1201 0
-902 -1202 0
-1201 -1701 0
-1202 -1702 0
-1201 -2001 0
-1202 -2002 0
-1501 -2001 0
-1502 -2002 0
-1601 -1701 0
-1602 -1702 0
